TYPE : Vertex Cover
DIMENSION: 21
EDGE_DATA_SECTION:
0 4
0 7
0 9
0 13
0 14
0 19
0 20
1 12
1 14
1 16
2 4
2 6
2 8
2 10
2 12
2 13
2 15
3 11
3 13
3 16
3 18
3 19
4 10
4 12
4 16
4 17
4 18
4 19
5 6
5 10
5 13
6 8
6 14
6 16
6 18
6 19
7 10
7 13
7 15
7 18
7 19
9 11
9 13
9 20
10 14
11 16
12 19
13 15
14 15
15 16
18 20
-1
VERTEX_DEGREE:
7.0 3.0 7.0 5.0 8.0 3.0 7.0 6.0 2.0 4.0 5.0 3.0 4.0 7.0 5.0 5.0 6.0 1.0 5.0 6.0 3.0
VERTEX_COVER:
0 2 3 4 5 6 7 11 12 13 14 16 20
EOF
